NAME : amtsp
TYPE : ATSP
DIMENSION : 11
EDGE_WEIGHT_TYPE : EXPLICIT
EDGE_WEIGHT_FORMAT : FULL_MATRIX
EDGE_WEIGHT_SECTION
100000 -100000 100000 100000 100000 100000 100000 100000 100000 100000 100000 
100000 100000 -244 -152 -166 385 1580 493 1558 1685 1565 
0 0 100000 -301 -153 41 223 190 814 869 745 
0 0 -301 100000 -273 -72 120 217 824 951 891 
0 0 -153 -273 100000 -277 -79 12 623 837 921 
0 0 41 -72 -277 100000 -299 -205 504 718 815 
0 0 223 120 -79 -299 100000 -301 407 622 825 
0 0 190 217 12 -205 -301 100000 211 425 634 
0 0 814 824 623 504 407 211 100000 -284 -159 
0 0 869 951 837 718 622 425 -284 100000 -314 
0 0 745 891 921 815 825 634 -159 -314 100000 
